db/inputs/229841888199622807420713284028009189.smt2
(set-logic QF_FP)
(declare-const x0 (_ FloatingPoint 11 53))
(declare-const x1 (_ FloatingPoint 11 53))
(declare-const x2 (_ FloatingPoint 11 53))
(declare-const x3 (_ FloatingPoint 11 53))
(assert (fp.lt (fp.neg (fp.div RNE x2 x0)) (fp.add RNE (fp.neg x0) (fp.neg x1))))
(check-sat)
