db/data/229841888199622807420713284028009189.z3.out
sat
-------------------
76.035624342
